858.32,43.87,50.1
825.39,45.62,52.1
802.77,46.9,53.57
875.31,43.02,49.13
925.43,40.69,46.47
826.25,45.57,52.05
844.38,44.59,50.93
1027.59,36.64,41.85
763.67,49.31,56.31
835.81,45.05,51.45
846.54,44.48,50.8
850.4,44.28,50.57
963.19,39.09,44.65
837.9,44.94,51.32
890.9,42.26,48.27
851.42,44.22,50.51
708.4,53.15,60.7
811.81,46.38,52.97
807.04,46.66,53.28
790.06,47.66,54.43
